========================================================== 
File name: C:\DEGR\assets\definitions\MSRCPSP_Gen\1000_40_1024_10_A.def
Creation date: Sat May 06 09:23:23 CEST 2023
Website: http://imopse.ii.pwr.edu.pl/ 
Reference: 
Myszkowski P. B., Skowronski M. E., Olech L., Oslizlo K., 
Hybrid Ant Colony Optimization in solving Multi-Skill Resource-Constrained Project Scheduling Problem, 
Soft Computing, DOI: DOI 10.1007/s00500-014-1455-x 
========================================================== 
General characteristics: 
Tasks: 1000
Resources: 40
Precedence relations: 1022
Number of skill types: 10
========================================================== 
ResourceID 	 Salary 	 Skills 
1	 	 	93.7	 	 Q4: 1 	 
2	 	 	50.2	 	 Q1: 3 	  Q7: 2 	  Q5: 2 	  Q6: 1 	  Q9: 3 	  Q3: 3 	  Q0: 3 	  Q2: 0 	 
3	 	 	65.2	 	 Q1: 1 	  Q4: 1 	  Q7: 2 	  Q5: 3 	  Q8: 2 	 
4	 	 	31.5	 	 Q7: 0 	  Q1: 2 	  Q3: 2 	  Q8: 0 	  Q5: 2 	  Q2: 3 	 
5	 	 	90.0	 	 Q3: 3 	  Q2: 0 	  Q6: 2 	  Q1: 3 	  Q0: 2 	  Q9: 1 	  Q7: 2 	 
6	 	 	21.9	 	 Q6: 0 	  Q8: 3 	 
7	 	 	92.3	 	 Q4: 3 	  Q5: 0 	  Q3: 2 	  Q6: 1 	  Q2: 3 	  Q7: 2 	 
8	 	 	90.4	 	 Q4: 3 	  Q8: 0 	  Q6: 1 	  Q2: 3 	  Q0: 3 	  Q7: 2 	  Q3: 3 	 
9	 	 	52.0	 	 Q7: 3 	  Q8: 1 	  Q4: 3 	  Q2: 0 	  Q5: 1 	  Q0: 0 	  Q3: 2 	  Q6: 0 	  Q1: 3 	 
10	 	 	32.4	 	 Q5: 2 	  Q8: 2 	  Q6: 2 	  Q2: 2 	  Q7: 3 	  Q0: 2 	  Q3: 0 	 
11	 	 	69.8	 	 Q2: 1 	  Q5: 3 	  Q9: 2 	  Q1: 2 	  Q6: 2 	  Q7: 3 	  Q8: 1 	  Q0: 2 	  Q3: 3 	 
12	 	 	72.6	 	 Q4: 1 	  Q2: 1 	  Q7: 2 	  Q6: 1 	  Q5: 2 	 
13	 	 	79.9	 	 Q5: 0 	  Q6: 2 	  Q9: 3 	  Q7: 3 	  Q3: 3 	  Q0: 1 	  Q1: 0 	  Q4: 2 	  Q8: 0 	 
14	 	 	92.6	 	 Q0: 2 	  Q4: 1 	  Q9: 3 	  Q5: 2 	  Q7: 1 	  Q1: 0 	  Q6: 1 	 
15	 	 	70.8	 	 Q0: 2 	  Q1: 0 	  Q9: 0 	  Q4: 2 	 
16	 	 	15.9	 	 Q4: 0 	  Q2: 0 	  Q8: 1 	  Q0: 2 	  Q9: 3 	  Q7: 1 	 
17	 	 	28.9	 	 Q1: 2 	 
18	 	 	10.3	 	 Q6: 3 	  Q9: 0 	  Q3: 0 	  Q2: 1 	  Q5: 0 	  Q7: 3 	  Q4: 3 	 
19	 	 	48.9	 	 Q6: 0 	  Q5: 3 	  Q1: 2 	  Q9: 2 	  Q4: 3 	  Q3: 2 	  Q7: 0 	 
20	 	 	15.0	 	 Q8: 1 	  Q1: 2 	  Q5: 0 	  Q3: 0 	  Q4: 0 	 
21	 	 	80.6	 	 Q2: 2 	  Q1: 2 	  Q8: 2 	  Q0: 2 	 
22	 	 	92.8	 	 Q1: 1 	 
23	 	 	62.9	 	 Q7: 2 	  Q3: 0 	  Q1: 1 	  Q9: 2 	  Q6: 3 	  Q5: 0 	  Q4: 3 	  Q8: 3 	 
24	 	 	48.7	 	 Q5: 0 	  Q8: 3 	  Q3: 3 	  Q1: 3 	  Q6: 0 	  Q2: 0 	  Q0: 0 	  Q4: 0 	 
25	 	 	98.3	 	 Q5: 0 	  Q1: 2 	  Q2: 0 	  Q6: 3 	 
26	 	 	44.9	 	 Q6: 2 	  Q7: 3 	  Q2: 1 	 
27	 	 	66.5	 	 Q9: 3 	 
28	 	 	81.5	 	 Q9: 1 	  Q2: 1 	  Q7: 1 	  Q8: 0 	 
29	 	 	67.8	 	 Q9: 2 	  Q0: 0 	  Q2: 3 	  Q7: 0 	 
30	 	 	55.9	 	 Q8: 2 	  Q1: 1 	 
31	 	 	37.8	 	 Q1: 2 	  Q8: 2 	  Q3: 1 	  Q7: 1 	  Q9: 3 	  Q6: 3 	  Q4: 0 	  Q5: 1 	 
32	 	 	64.5	 	 Q8: 0 	  Q7: 0 	  Q5: 0 	  Q9: 0 	  Q4: 1 	  Q2: 2 	  Q1: 0 	  Q3: 2 	 
33	 	 	79.0	 	 Q7: 3 	 
34	 	 	68.5	 	 Q5: 1 	  Q3: 2 	  Q1: 2 	  Q2: 0 	  Q8: 2 	  Q9: 0 	  Q7: 3 	  Q0: 1 	 
35	 	 	64.5	 	 Q5: 0 	  Q6: 1 	  Q1: 3 	  Q0: 3 	  Q8: 1 	  Q3: 1 	  Q4: 1 	  Q2: 3 	 
36	 	 	63.0	 	 Q2: 2 	  Q1: 2 	  Q7: 2 	  Q3: 3 	  Q0: 0 	  Q6: 3 	  Q5: 3 	  Q8: 1 	 
37	 	 	66.9	 	 Q1: 1 	  Q3: 1 	  Q9: 0 	  Q6: 3 	 
38	 	 	74.0	 	 Q6: 1 	  Q3: 2 	  Q0: 0 	  Q8: 3 	  Q7: 3 	 
39	 	 	43.0	 	 Q5: 1 	  Q9: 0 	  Q3: 2 	  Q0: 3 	  Q8: 2 	 
40	 	 	98.8	 	 Q7: 2 	  Q0: 1 	  Q8: 2 	 
========================================================== 
TaskID 	 Duration 	 Skill 	 Predecessor IDs 
1	18	Q4:	0
2	17	Q2:	3
3	12	Q9:	2
4	15	Q0:	1
5	19	Q7:	3
6	33	Q3:	0
7	9	Q5:	0
8	29	Q3:	0
9	40	Q6:	2
10	12	Q9:	0
11	12	Q5:	1
12	17	Q5:	2
13	29	Q9:	3
14	23	Q7:	3
15	11	Q7:	1
16	23	Q6:	2
17	23	Q4:	0
18	17	Q9:	2
19	23	Q4:	0
20	34	Q8:	2
21	24	Q6:	3
22	9	Q2:	1
23	28	Q8:	3
24	28	Q0:	2
25	38	Q9:	3
26	36	Q5:	3
27	19	Q7:	0
28	12	Q0:	1
29	17	Q0:	0
30	37	Q7:	1
31	38	Q7:	2
32	34	Q7:	1
33	14	Q7:	3
34	28	Q6:	1
35	29	Q4:	3
36	30	Q3:	0
37	11	Q6:	3
38	10	Q4:	1
39	39	Q2:	2
40	16	Q4:	2
41	38	Q8:	1
42	15	Q3:	0	17
43	10	Q0:	2
44	22	Q9:	3
45	32	Q4:	2
46	38	Q1:	0
47	20	Q3:	1
48	34	Q5:	3
49	26	Q8:	1
50	23	Q7:	0
51	28	Q3:	1
52	40	Q9:	1
53	9	Q4:	2
54	16	Q1:	3
55	23	Q2:	1
56	31	Q6:	1
57	12	Q7:	0
58	23	Q4:	1
59	30	Q9:	2
60	24	Q0:	2
61	37	Q6:	2
62	37	Q4:	3
63	16	Q7:	3
64	26	Q9:	3
65	37	Q9:	1
66	13	Q3:	1
67	25	Q2:	2
68	25	Q4:	3
69	18	Q9:	0
70	38	Q4:	3
71	28	Q3:	3
72	28	Q1:	0
73	36	Q4:	3
74	20	Q5:	3
75	35	Q6:	3	2
76	10	Q2:	0
77	9	Q5:	1
78	14	Q2:	2
79	25	Q9:	0
80	40	Q5:	3
81	32	Q2:	2	17
82	18	Q5:	2
83	18	Q5:	1
84	36	Q0:	2
85	11	Q3:	2
86	19	Q1:	0
87	12	Q0:	0
88	26	Q3:	1
89	39	Q6:	2
90	36	Q2:	0
91	9	Q5:	3
92	23	Q5:	3
93	28	Q8:	2
94	23	Q8:	0
95	32	Q6:	0
96	22	Q3:	2
97	10	Q8:	2
98	28	Q9:	0
99	9	Q8:	2
100	17	Q9:	2
101	21	Q6:	1	23
102	40	Q8:	1
103	20	Q3:	0
104	29	Q9:	2	101
105	30	Q1:	1
106	33	Q5:	3
107	21	Q7:	2
108	19	Q7:	1	58	61
109	30	Q3:	1
110	35	Q3:	2
111	10	Q4:	2	64
112	20	Q0:	0	1
113	12	Q1:	0
114	37	Q8:	3
115	12	Q7:	1
116	13	Q4:	0	23
117	22	Q1:	1
118	21	Q9:	0
119	14	Q4:	2
120	17	Q8:	0
121	17	Q6:	2
122	12	Q2:	1	45
123	37	Q7:	2	113
124	30	Q4:	0
125	19	Q8:	3
126	18	Q6:	3
127	37	Q9:	1
128	26	Q5:	2	2
129	16	Q5:	1
130	39	Q5:	3
131	11	Q6:	3
132	20	Q1:	0
133	35	Q5:	2
134	16	Q8:	0	52
135	38	Q9:	2	35
136	26	Q0:	0
137	36	Q9:	1
138	18	Q5:	2
139	22	Q2:	3
140	18	Q5:	3
141	38	Q0:	3
142	12	Q2:	0
143	16	Q2:	3	58
144	24	Q6:	3
145	12	Q3:	0
146	28	Q3:	1
147	19	Q8:	1
148	13	Q4:	2	76
149	12	Q2:	3
150	32	Q4:	3
151	10	Q9:	0	108
152	22	Q2:	1
153	13	Q7:	2
154	40	Q3:	2
155	22	Q2:	3
156	37	Q6:	2
157	20	Q7:	1
158	25	Q5:	1	111
159	23	Q0:	1
160	10	Q7:	3	131
161	17	Q9:	1	119
162	25	Q8:	2
163	40	Q6:	1
164	28	Q8:	0
165	17	Q9:	0
166	30	Q3:	0
167	39	Q7:	0
168	13	Q6:	0
169	17	Q5:	2
170	32	Q7:	3
171	27	Q6:	0
172	19	Q4:	2
173	17	Q4:	3
174	21	Q6:	2
175	32	Q4:	2	59	103	74
176	29	Q0:	2	118
177	34	Q9:	1
178	17	Q8:	0
179	32	Q2:	0
180	17	Q6:	3	5
181	28	Q7:	1
182	26	Q8:	1
183	11	Q7:	1
184	25	Q4:	0	17
185	30	Q5:	3
186	18	Q5:	1
187	30	Q6:	0
188	27	Q4:	0
189	40	Q3:	2	93
190	17	Q5:	2
191	12	Q7:	3
192	25	Q9:	2
193	27	Q2:	0
194	15	Q7:	2
195	18	Q5:	2
196	33	Q9:	0
197	26	Q8:	2	89
198	15	Q4:	3
199	26	Q6:	2
200	29	Q7:	3	145
201	10	Q8:	0
202	40	Q7:	3	179	113
203	37	Q0:	3
204	39	Q9:	2
205	23	Q3:	3
206	13	Q4:	3
207	14	Q9:	1
208	26	Q8:	2	167
209	20	Q0:	3	137	38	164
210	23	Q0:	3
211	27	Q9:	2	153
212	37	Q6:	2
213	39	Q1:	0
214	36	Q3:	0	76
215	37	Q8:	1	210	71
216	9	Q2:	2	76
217	13	Q3:	1	204
218	19	Q0:	1
219	14	Q0:	3	89
220	34	Q1:	3
221	17	Q8:	3	10
222	37	Q4:	0
223	16	Q3:	2	107
224	11	Q7:	2	165
225	34	Q0:	0
226	9	Q6:	2	120
227	38	Q4:	1
228	28	Q9:	1	162
229	14	Q2:	2
230	27	Q1:	0
231	22	Q4:	0
232	29	Q1:	2	170
233	35	Q4:	1
234	38	Q6:	0	190
235	30	Q2:	0	98
236	31	Q5:	2
237	17	Q7:	0
238	13	Q2:	3
239	17	Q6:	2	148
240	24	Q8:	3	115
241	37	Q0:	0
242	21	Q9:	1
243	11	Q3:	1	41
244	22	Q1:	0
245	26	Q4:	1
246	36	Q0:	0	43
247	32	Q5:	0
248	16	Q8:	0
249	13	Q1:	0	182
250	29	Q3:	3
251	35	Q7:	3
252	15	Q8:	0	101
253	18	Q2:	1
254	12	Q9:	0
255	16	Q2:	1
256	25	Q9:	2	208
257	31	Q5:	2
258	40	Q2:	3
259	26	Q1:	2	241
260	39	Q6:	3	216
261	39	Q4:	1	129
262	38	Q8:	0	135
263	32	Q2:	0
264	20	Q2:	1
265	15	Q3:	1
266	40	Q9:	3
267	16	Q0:	3
268	27	Q3:	2
269	35	Q4:	1	199
270	31	Q3:	3	118	194
271	12	Q9:	1	12
272	26	Q2:	2
273	21	Q5:	1
274	30	Q5:	0
275	27	Q4:	1	156
276	27	Q1:	2	262
277	29	Q5:	3	67
278	13	Q8:	2	258	136	89
279	29	Q1:	0
280	35	Q9:	0	44
281	20	Q9:	1
282	38	Q5:	3	59
283	8	Q8:	0
284	29	Q8:	2	168
285	23	Q9:	3	210
286	27	Q5:	2
287	30	Q9:	2	237
288	29	Q3:	0	207
289	19	Q3:	1	187	81	156
290	13	Q3:	0	154	57
291	19	Q1:	1	254	284
292	19	Q2:	0
293	40	Q5:	2
294	11	Q0:	0	170
295	39	Q1:	2	217
296	9	Q6:	3
297	20	Q4:	2	5
298	25	Q4:	2
299	16	Q2:	1
300	21	Q2:	2
301	15	Q2:	1
302	25	Q7:	1
303	24	Q8:	0
304	15	Q7:	0
305	40	Q7:	2	103
306	26	Q5:	0	297	198
307	32	Q2:	2
308	9	Q6:	1	112	60	245
309	29	Q6:	2
310	27	Q2:	0	230
311	13	Q7:	0	39
312	20	Q1:	3	38	131
313	19	Q0:	1
314	22	Q0:	3	62	273	307	124
315	34	Q0:	1	175
316	28	Q7:	1	298
317	9	Q3:	3
318	30	Q2:	3
319	40	Q3:	1	307
320	39	Q9:	0
321	20	Q1:	3
322	34	Q5:	0	148
323	32	Q2:	2
324	24	Q0:	0
325	32	Q0:	1	254
326	28	Q9:	0
327	12	Q0:	2
328	31	Q1:	1	209
329	13	Q1:	2	96
330	40	Q6:	3	120
331	14	Q4:	1
332	26	Q0:	1	116
333	36	Q0:	0	178
334	19	Q5:	2
335	32	Q3:	3	83
336	9	Q1:	0	328
337	25	Q5:	0
338	17	Q8:	2	167	65
339	14	Q2:	0
340	11	Q6:	1
341	16	Q8:	3	285
342	15	Q2:	0	278	55
343	33	Q7:	0	57
344	12	Q9:	2
345	23	Q3:	0
346	16	Q9:	0
347	32	Q8:	0	177
348	15	Q8:	2	302
349	40	Q5:	2
350	21	Q6:	2
351	24	Q6:	1
352	27	Q4:	3
353	31	Q9:	1
354	12	Q2:	2	235
355	33	Q7:	0
356	21	Q5:	3
357	25	Q3:	2
358	38	Q7:	0	16
359	13	Q9:	1
360	16	Q9:	2	275	51	8
361	13	Q3:	1
362	28	Q1:	2
363	10	Q6:	1	226
364	11	Q3:	2
365	36	Q2:	1
366	18	Q0:	0	238
367	34	Q9:	0	205	248	225	338
368	32	Q9:	0
369	18	Q4:	3	14
370	37	Q6:	2
371	9	Q0:	2	52
372	38	Q3:	1	101
373	9	Q5:	2
374	25	Q5:	1	90
375	27	Q5:	3
376	15	Q5:	3	12	71	102
377	20	Q3:	1	226	81	203
378	16	Q5:	2	11
379	26	Q5:	1
380	17	Q9:	3	20	263
381	17	Q1:	1
382	35	Q2:	3
383	17	Q9:	2
384	24	Q4:	3	221	165	291	191
385	24	Q2:	0	219	177
386	38	Q2:	2
387	17	Q3:	1
388	21	Q3:	2	360
389	12	Q2:	2
390	19	Q9:	2	93
391	29	Q4:	2
392	20	Q5:	0	322
393	13	Q8:	2	121
394	19	Q1:	1
395	17	Q3:	3
396	39	Q5:	1	329
397	11	Q8:	0	282
398	16	Q5:	2	193
399	19	Q0:	0	169
400	25	Q0:	0
401	40	Q4:	1	242	278
402	10	Q3:	3
403	19	Q2:	3	364
404	33	Q2:	0
405	16	Q7:	3
406	32	Q2:	0	244
407	39	Q2:	2
408	40	Q6:	0	117	91	382	107
409	25	Q3:	2	92	176
410	38	Q9:	3	49
411	13	Q0:	3
412	29	Q3:	2	167
413	9	Q9:	2	21
414	23	Q8:	3
415	31	Q0:	1
416	33	Q9:	2	24	280	270
417	13	Q4:	0	141
418	34	Q5:	1	354	197	268
419	30	Q9:	3
420	33	Q2:	0	91
421	34	Q5:	3	325
422	40	Q2:	1
423	33	Q3:	0
424	19	Q3:	2
425	40	Q4:	2
426	33	Q0:	2	171
427	9	Q8:	3	238	84
428	21	Q6:	0	277
429	25	Q9:	3
430	19	Q8:	1	378	288
431	18	Q2:	2	166
432	28	Q4:	3	273
433	11	Q4:	0	142	256
434	16	Q8:	1	125
435	36	Q4:	1	273
436	24	Q7:	3
437	35	Q2:	2	178
438	31	Q0:	1
439	28	Q8:	3	41
440	26	Q4:	2
441	39	Q4:	1
442	29	Q3:	2	203
443	16	Q4:	2
444	39	Q0:	3
445	13	Q8:	3
446	12	Q6:	0
447	9	Q2:	0
448	19	Q6:	1	249
449	31	Q5:	1	107	304
450	15	Q9:	2
451	34	Q3:	1
452	16	Q6:	2	315	145
453	18	Q4:	0
454	22	Q0:	3	113
455	22	Q6:	2
456	27	Q6:	1	105
457	16	Q7:	2	394	447	129
458	31	Q2:	2
459	25	Q7:	2
460	36	Q3:	2
461	16	Q9:	0	100	27
462	9	Q8:	2	333	354	166
463	30	Q9:	2	34	54
464	36	Q5:	2	298	68	268
465	15	Q4:	1	451	454
466	14	Q4:	1
467	12	Q4:	2	146	64
468	23	Q6:	1	292	128
469	35	Q6:	3	387
470	33	Q9:	2	205
471	40	Q4:	3	59	144
472	27	Q7:	0	197
473	23	Q6:	1	117	190	374	133
474	16	Q8:	3	420
475	30	Q0:	2
476	23	Q8:	0	468
477	18	Q8:	2	353
478	36	Q1:	1	275	53
479	13	Q3:	1	200
480	37	Q5:	3	441
481	28	Q2:	3
482	18	Q0:	0	164
483	14	Q9:	3	225	138
484	10	Q7:	1
485	23	Q2:	3	106	276	399
486	35	Q6:	3	160
487	30	Q9:	0	353
488	30	Q4:	3	382	435	30
489	30	Q5:	1	233	367	10
490	29	Q5:	3	452	435
491	39	Q4:	2	57	386
492	37	Q2:	2	475
493	17	Q0:	3	56	206
494	10	Q2:	3	107
495	23	Q7:	2
496	12	Q1:	3	87	238
497	40	Q8:	2	303
498	25	Q8:	3
499	28	Q0:	1
500	28	Q8:	3	217
501	31	Q2:	3
502	40	Q9:	1
503	31	Q0:	3	75
504	26	Q3:	2
505	35	Q0:	1	36
506	29	Q5:	0	39	69
507	20	Q8:	0
508	10	Q1:	0	340
509	36	Q1:	3	506
510	19	Q7:	1	36	338	354	335
511	39	Q4:	2	290	339
512	11	Q1:	1	208	425	14
513	23	Q6:	1	409
514	25	Q0:	2
515	15	Q0:	2	238
516	14	Q2:	2	261	123
517	29	Q8:	3
518	16	Q9:	1	59
519	24	Q2:	1
520	25	Q3:	3
521	25	Q6:	3
522	31	Q2:	1	331	473
523	17	Q3:	3
524	21	Q2:	2	225
525	32	Q6:	0	249
526	10	Q6:	1
527	36	Q4:	2	8
528	13	Q6:	3	340
529	10	Q6:	2
530	33	Q6:	1	343
531	21	Q7:	2	389	469
532	32	Q7:	1
533	19	Q3:	3	475
534	27	Q4:	2
535	26	Q9:	1	29	501
536	9	Q4:	2	451
537	23	Q7:	0	419
538	36	Q8:	1	188
539	20	Q2:	1	111	501
540	33	Q2:	0	199
541	22	Q7:	1	407
542	16	Q1:	1	105	537
543	24	Q3:	2	384	208	322
544	35	Q9:	2	80	60
545	15	Q4:	2	437
546	30	Q6:	2	351
547	9	Q1:	1	231
548	27	Q0:	0	183
549	39	Q5:	2	495
550	14	Q8:	3	166
551	28	Q1:	2	465	213	224
552	37	Q5:	2
553	17	Q4:	0	39	97
554	29	Q7:	0
555	25	Q6:	0
556	14	Q5:	2
557	23	Q2:	3	164	377	292
558	10	Q6:	2	180	451
559	38	Q6:	3	223	311	438
560	22	Q0:	1	191
561	18	Q4:	2	535	541	324
562	23	Q4:	0	336
563	35	Q5:	3
564	9	Q4:	2
565	38	Q1:	1	112	242
566	28	Q9:	1	136	291
567	17	Q3:	2	4	283
568	13	Q8:	0	326
569	13	Q1:	2	332
570	19	Q2:	0	527	291	236	150
571	17	Q7:	3	328	560	242
572	21	Q4:	1
573	15	Q3:	0	27
574	12	Q5:	2	86
575	29	Q6:	1
576	10	Q2:	0	235	197
577	26	Q8:	0	10
578	20	Q7:	1
579	16	Q8:	0	187
580	12	Q9:	2
581	13	Q1:	0	466
582	26	Q7:	0	369
583	32	Q7:	2
584	13	Q5:	0	257	281
585	27	Q7:	1	102	9
586	20	Q3:	1	377	131
587	15	Q5:	2	390
588	30	Q0:	3	418	369	59	314
589	30	Q7:	0
590	19	Q3:	3	430
591	14	Q4:	1	313	560
592	35	Q2:	1
593	19	Q6:	2	13
594	26	Q1:	2	566
595	30	Q3:	1
596	37	Q2:	3	57	385	488
597	21	Q8:	1	285	423	220
598	9	Q2:	1	392
599	13	Q3:	3	414	407	351
600	29	Q5:	0
601	14	Q5:	1	323
602	16	Q2:	1	555	285	149	71
603	31	Q6:	0	384	566	37
604	17	Q7:	1
605	13	Q0:	0	275
606	20	Q3:	3	336	9
607	9	Q6:	2	168	582	551
608	26	Q9:	1	447	109	98	411	129
609	25	Q5:	1
610	20	Q1:	3	498
611	18	Q6:	1	220	346
612	19	Q6:	3	51	207	510
613	12	Q8:	1	493
614	29	Q2:	1	15
615	10	Q7:	2	89	223
616	12	Q5:	1	231
617	24	Q5:	2	188
618	20	Q1:	2
619	9	Q8:	3	88	353	533
620	40	Q8:	3
621	39	Q3:	1	619
622	32	Q7:	3	248
623	27	Q3:	3	540
624	29	Q8:	3	192	174
625	19	Q3:	2	334
626	13	Q5:	2
627	18	Q7:	3	454	5
628	11	Q9:	2	618	288
629	37	Q9:	2	273	307
630	33	Q3:	2	16
631	20	Q1:	2	102
632	35	Q1:	3	60
633	31	Q5:	2
634	23	Q6:	2
635	17	Q7:	0
636	27	Q1:	3
637	35	Q5:	3
638	26	Q3:	1	489	186
639	12	Q9:	3	217	601
640	16	Q3:	2
641	21	Q4:	1	215	398	576
642	26	Q6:	0	10
643	28	Q1:	0
644	33	Q8:	2
645	30	Q6:	1	392	513	315	88
646	23	Q2:	0
647	31	Q9:	3
648	22	Q9:	0	37
649	34	Q9:	0	68
650	34	Q8:	2	117
651	38	Q0:	0	549
652	12	Q8:	2	556
653	24	Q6:	3	597
654	36	Q4:	0	597
655	38	Q3:	3	132	569
656	37	Q2:	2	144	403	25
657	9	Q5:	2	193	5	546	380
658	21	Q3:	0	29	620
659	13	Q7:	2	155
660	9	Q3:	0	450
661	25	Q5:	2
662	18	Q6:	3	626	166	613	641
663	37	Q6:	0	428
664	40	Q7:	2	203	322
665	15	Q5:	0	48
666	19	Q3:	1
667	24	Q3:	3
668	23	Q7:	2	222
669	37	Q1:	1
670	33	Q8:	2	46	411
671	26	Q4:	3
672	21	Q9:	3	218	599
673	36	Q2:	0	182	141	551
674	37	Q0:	1	254	67
675	22	Q3:	3
676	16	Q5:	3	179	434	54	61	560	264	328
677	18	Q2:	0	675	459
678	18	Q0:	3	503
679	9	Q9:	2	350	377
680	38	Q8:	3
681	37	Q4:	1	147	167
682	21	Q5:	3	291	296	420
683	15	Q1:	0
684	22	Q2:	0	562
685	25	Q6:	2
686	37	Q7:	0	587
687	14	Q1:	2
688	37	Q8:	0	184
689	35	Q0:	1
690	28	Q2:	3
691	30	Q2:	0	195
692	14	Q4:	2	507
693	24	Q0:	1
694	17	Q1:	1
695	28	Q2:	2	465	561	256
696	40	Q9:	3	243
697	21	Q5:	1
698	12	Q5:	2	298	696
699	17	Q4:	2	603
700	39	Q3:	1	611
701	28	Q6:	2	679	50
702	31	Q9:	1	385	364
703	36	Q3:	1	548	275
704	23	Q5:	3	202
705	19	Q6:	3
706	32	Q7:	2	247
707	27	Q7:	0	688	470
708	32	Q1:	2	205	326	513	390
709	21	Q1:	1	138
710	29	Q4:	3	209
711	23	Q5:	1	304
712	21	Q1:	0
713	29	Q4:	0	331	59	498
714	37	Q8:	3	499
715	9	Q6:	1
716	22	Q1:	0	655
717	13	Q1:	1
718	20	Q9:	2	252	180	23
719	17	Q0:	3	405	445
720	38	Q2:	0	404	78	149
721	29	Q4:	0	271
722	36	Q7:	3	374	696	14	133	16
723	17	Q8:	2	266
724	13	Q6:	2
725	18	Q0:	3	431	536
726	24	Q1:	3	144
727	22	Q0:	1	62
728	9	Q1:	1	494
729	17	Q1:	3	704	454
730	16	Q9:	2	648
731	24	Q5:	3	286
732	27	Q8:	0	159
733	36	Q7:	2	347
734	18	Q6:	2
735	14	Q7:	2	177
736	38	Q6:	0	434	193
737	31	Q7:	3	10	508
738	21	Q2:	0
739	35	Q5:	1	510
740	14	Q0:	1	224
741	32	Q2:	0	158	143	87	533
742	14	Q2:	1
743	11	Q6:	1
744	26	Q3:	0
745	25	Q2:	1	495	449
746	30	Q4:	0	645	526
747	13	Q6:	1	380	720	376
748	33	Q2:	1	253
749	14	Q3:	3	337
750	19	Q5:	2	328
751	15	Q1:	3
752	22	Q3:	2
753	17	Q6:	3	234	397	74
754	22	Q9:	1	503
755	25	Q8:	3	738
756	26	Q8:	2	430
757	19	Q2:	1
758	12	Q1:	0
759	10	Q8:	0
760	35	Q5:	1	8
761	23	Q9:	1	448
762	15	Q7:	0	298	684	567
763	34	Q1:	1	673
764	32	Q5:	2	679
765	10	Q6:	3
766	19	Q6:	0
767	26	Q2:	2	29	75
768	22	Q2:	0	329	626	520
769	11	Q6:	1	489
770	39	Q2:	0	241	245
771	10	Q5:	1
772	31	Q4:	2	119
773	12	Q0:	3	201	238
774	13	Q9:	1	332	569
775	20	Q3:	3
776	16	Q4:	3	51	82	769
777	12	Q1:	1	492	507	91	224
778	29	Q4:	3
779	35	Q9:	0	537
780	28	Q8:	0	312
781	25	Q5:	0	203
782	34	Q3:	0	730	740
783	12	Q3:	1	540
784	13	Q3:	3	343
785	29	Q5:	0	377	565	219	646
786	38	Q2:	0	388	725	445	757
787	33	Q1:	2	274
788	21	Q3:	1
789	31	Q6:	1	498
790	12	Q6:	2	667	653	524
791	28	Q5:	1
792	9	Q4:	0
793	31	Q4:	1	456	595	741
794	27	Q1:	3	274	145	708
795	29	Q8:	3	776	789
796	34	Q3:	0	759	33
797	27	Q3:	2	670
798	32	Q9:	2	496	257	735	136
799	14	Q1:	1	648	8
800	16	Q3:	0
801	10	Q0:	3	752
802	18	Q5:	1	781	619
803	40	Q1:	0	233	609	23	747	589
804	10	Q0:	1	243
805	12	Q5:	2	219
806	39	Q0:	2	447	47	253
807	39	Q8:	3	192	345
808	38	Q3:	2
809	37	Q4:	1	665	617	373	452
810	18	Q7:	2	590
811	12	Q5:	2	796
812	36	Q2:	2	791	231
813	24	Q9:	3	526
814	19	Q4:	3	25	424
815	36	Q4:	1	195
816	32	Q5:	0	716	243
817	12	Q6:	3	315
818	18	Q2:	2	775	496
819	38	Q8:	2	770
820	29	Q1:	2	327	802
821	14	Q9:	1	24
822	9	Q1:	3	648	39	819	536
823	38	Q2:	1	696
824	28	Q6:	1	176
825	37	Q1:	1	406	689	231	209
826	13	Q5:	1	821	202	466
827	31	Q0:	3	316
828	11	Q3:	1
829	23	Q1:	0	167	165	179
830	21	Q0:	0	680	286	608	428	615	482
831	10	Q9:	1	612	245
832	35	Q0:	2	508	140	722	84	323
833	39	Q4:	2	411	387	269
834	21	Q8:	3
835	13	Q2:	0
836	19	Q0:	1	664
837	26	Q5:	1
838	39	Q4:	3	809	282
839	10	Q3:	3	830	802
840	21	Q1:	3
841	9	Q5:	2	412
842	11	Q7:	1	577
843	16	Q2:	0	728	753	580	461
844	16	Q8:	3	230	5
845	32	Q1:	0	666	806	606
846	9	Q8:	2
847	35	Q6:	0	316	430	692
848	25	Q7:	0	433
849	32	Q3:	2
850	22	Q7:	3	431
851	22	Q2:	2	254	640
852	39	Q1:	3	489	825	737	486
853	26	Q0:	3	704
854	34	Q1:	2	334
855	26	Q1:	1
856	38	Q6:	1	21
857	35	Q5:	2	530	494	749
858	22	Q9:	2
859	24	Q3:	1
860	19	Q8:	1	677
861	12	Q0:	2	676
862	18	Q0:	0	251	411
863	35	Q4:	3	27	56
864	38	Q7:	3
865	30	Q5:	2	749	30	86
866	36	Q3:	2	71	6	267
867	9	Q9:	0
868	37	Q5:	1	596	619
869	28	Q3:	0
870	27	Q0:	3
871	27	Q7:	3	447	391
872	34	Q7:	2	628	670	522
873	29	Q3:	0	287
874	40	Q6:	3	339	38
875	21	Q6:	0	33	380	451
876	10	Q9:	2
877	40	Q8:	0	547	466	61
878	23	Q3:	2	816	781	465
879	34	Q4:	1	436
880	27	Q2:	1	502	196
881	18	Q6:	3	813	46
882	30	Q7:	0	669	472	692	786
883	27	Q6:	2	218
884	38	Q0:	0	564	248	537	521
885	15	Q2:	2	534	273	598	272	592
886	13	Q4:	1
887	26	Q2:	1	288
888	29	Q0:	0	190	101	554
889	34	Q5:	0	418
890	21	Q5:	1	243	690
891	11	Q8:	2	303	376	460
892	15	Q2:	0	404	556
893	25	Q3:	3	537
894	29	Q3:	2	755	156	604
895	9	Q5:	0
896	25	Q2:	2	396	202	427	295	506
897	18	Q3:	0	817
898	33	Q3:	2
899	19	Q6:	3
900	25	Q2:	1	491	370
901	32	Q0:	0	253	736	634	709
902	27	Q2:	1	471
903	12	Q2:	0	299
904	32	Q1:	2	443	355
905	19	Q1:	2	109
906	25	Q5:	0	691
907	29	Q2:	2
908	23	Q1:	1
909	25	Q5:	1	251	708
910	19	Q5:	3	121	406	508
911	17	Q4:	1	228	239	427
912	39	Q7:	3	735	242
913	14	Q9:	0
914	35	Q5:	0
915	40	Q2:	2	238	783	352	399	280
916	15	Q1:	0	59	602
917	35	Q9:	1	73	212	262
918	35	Q9:	1	843	639	910	476	38
919	16	Q2:	0	146	470	331
920	15	Q3:	3	912	629
921	11	Q6:	1	729
922	25	Q9:	3	263
923	20	Q4:	1	20	386	687	663
924	22	Q8:	1	906	687	871
925	25	Q6:	0	553	615
926	23	Q8:	1	271	760
927	17	Q2:	1	220	638
928	17	Q6:	3	365	490
929	25	Q4:	2	774	78	69
930	31	Q0:	3	500
931	34	Q3:	2	921	764	261	337	100
932	40	Q6:	0	220
933	22	Q0:	3	825
934	32	Q5:	1	855
935	32	Q6:	3	565
936	35	Q8:	2
937	31	Q0:	1
938	31	Q9:	1	926	656
939	12	Q8:	2	115	413	718
940	15	Q7:	0	734	394
941	22	Q7:	3	12
942	39	Q9:	2	88	572
943	39	Q0:	3	52	550
944	15	Q6:	2	809	298
945	26	Q0:	0	378	266	368	367	826
946	19	Q5:	2	443
947	23	Q0:	2	203	136	941
948	15	Q0:	0	68	510	191
949	24	Q0:	0	582	155	47	497
950	25	Q1:	0	172	45	687	401
951	15	Q9:	0	254	575	37	449
952	20	Q1:	0	248	124
953	31	Q0:	0	466	183	692	570
954	40	Q9:	0	759
955	13	Q4:	1	755	929
956	25	Q1:	2	871
957	23	Q4:	3	369
958	17	Q1:	2
959	9	Q5:	1	803	315	373
960	21	Q5:	3	538	452
961	34	Q4:	1	71	481	775	441
962	10	Q8:	3	881	147	884
963	9	Q6:	0	41	114	428
964	25	Q6:	3	29	306	711
965	22	Q0:	3	273
966	27	Q5:	3
967	13	Q1:	3	857	388	952
968	23	Q9:	3	719	270
969	24	Q3:	1	802	302	353
970	23	Q0:	3	739	59
971	28	Q9:	2	452	36	623	370
972	10	Q5:	3	348	206
973	25	Q2:	0
974	12	Q3:	0	952	722	632
975	24	Q4:	0	31
976	17	Q4:	3	549
977	13	Q5:	1	261
978	29	Q2:	3	526	254
979	37	Q5:	1	498	351	677	806
980	36	Q6:	0	382
981	39	Q3:	2
982	30	Q1:	3	979	150	162
983	28	Q7:	2	186
984	11	Q3:	2	672	172
985	28	Q3:	0	164
986	14	Q7:	2	110	527
987	40	Q9:	1	261
988	27	Q6:	0	514
989	10	Q7:	2	556
990	16	Q4:	0	502	281	694	307
991	21	Q1:	0	16
992	16	Q4:	1
993	12	Q6:	1	777	480
994	26	Q6:	2	850
995	28	Q9:	2	76
996	39	Q0:	2
997	11	Q0:	3	722
998	26	Q5:	3	902	931
999	13	Q2:	3	629	396
1000	29	Q7:	3	932
========================================================== 